\ENCODING=ISO-8859-1
\Problem name: 

Minimize
 obj: delta
Subject To
 c1:  - f_0_0 - 0.44428026676178 f_0_1 - 0.532719433307648 f_0_2
      + 0.252088934183121 f_1_0 + 0.00800281949341297 f_1_2
      + 0.772835433483124 f_2_1 + 0.580794155597687 f_2_2
      + 0.589767813682556 f_3_0 + 0.636354744434357 f_3_2
      + 0.124323807656765 f_4_0 + 0.919654309749603 f_4_1  = -0.200000002980232
 c2:  0.481712192296982 f_0_0 - f_1_0 - 0.544492959976196 f_1_1 - f_1_2
      + 0.678213536739349 f_2_0 + 0.360232144594193 f_3_0  = -0.200000002980232
 c3:  0.468287765979767 f_0_0 + 0.394280195236206 f_0_1
      + 0.697911024093628 f_1_0 + 0.941997170448303 f_1_2 - f_2_0 - f_2_1
      - 0.630794107913971 f_2_2 + 0.328118443489075 f_3_1
      + 0.313645213842392 f_3_2 + 0.825676143169403 f_4_0
      + 0.430585891008377 f_4_2  = -0.200000002980232
 c4:  0.271786451339722 f_2_0 - f_3_0 - f_3_1 - f_3_2 + 0.519414007663727 f_4_2
       = -0.200000002980232
 c5:  0.482719361782074 f_0_2 + 0.494492948055267 f_1_1
      + 0.177164554595947 f_2_1 + 0.621881544589996 f_3_1 - f_4_0
      - 0.969654321670532 f_4_1 - f_4_2  = -0.200000002980232
 c6:  delta + 10 f_0_0 - 10 f_0_1 + 9.99999676656626 f_0_2
      + 9.99998733118193 f_1_0 + 10 f_1_1 + 9.99999117517651 f_1_2 + 10 f_2_0
      + 9.99999206947268 f_2_1 - 10 f_2_2 - 10 f_3_0 + 10 f_3_1 + 10 f_3_2
      + 9.99999887070069 f_4_0 - 10 f_4_1 + 10 f_4_2 >= 199.999873698708
 c7:  delta + 4.5058127951567 f_0_0 - 10 f_0_1 - 10 f_0_2 - 10 f_1_0 - 10 f_1_1
      - 10 f_1_2 - 10 f_2_0 - 10 f_2_1 - 10 f_2_2 - 10 f_3_0 + 10 f_3_1
      - 10 f_3_2 - 10 f_4_0 + 10 f_4_1 + 10 f_4_2 >= 1.99551028424335
 c8:  delta - 10 f_0_0 + 10 f_0_1 + 9.99999403338343 f_0_2 + 10 f_1_0
      - 10 f_1_1 + 10 f_1_2 - 10 f_2_0 + 10 f_2_1 + 10 f_2_2 + 10 f_3_0
      - 10 f_3_1 + 10 f_3_2 + 9.99999653693507 f_4_0 + 10 f_4_1 - 10 f_4_2
      >= 199.999875835224
 c9:  delta + 10 f_0_0 + 10 f_0_1 - 10 f_0_2 + 10 f_1_0 + 10 f_1_1 - 10 f_1_2
      + 6.9839133348155 f_2_0 + 10 f_2_1 - 10 f_2_2 - 10 f_3_0 - 10 f_3_1
      + 10 f_3_2 - 10 f_4_0 - 10 f_4_1 - 10 f_4_2 >= 175.816276473264
 c10: delta - 10 f_0_0 + 10 f_0_1 - 10 f_0_2 - 10 f_1_0
      + 7.41385066327746 f_1_1 - 10 f_1_2 + 10 f_2_0 + 10 f_2_1 - 10 f_2_2
      - 10 f_3_0 + 10 f_3_1 + 10 f_3_2 - 10 f_4_0 - 10 f_4_1 - 10 f_4_2
      >= 171.81627641366
 c11: delta - 10 f_0_0 + 10 f_0_1 - 10 f_0_2 + 10 f_1_0
      - 0.375305323068247 f_1_1 - 10 f_1_2 - 6.50758731527127 f_2_0 - 10 f_2_1
      - 10 f_2_2 - 10 f_3_0 - 10 f_3_1 + 10 f_3_2 - 10 f_4_0 + 10 f_4_1
      - 10 f_4_2 >= 90.2164538088794
 c12: delta - 10 f_0_0 + 10 f_0_1 + 2.92718304956092 f_0_2 - 10 f_1_0
      - 10 f_1_1 - 10 f_1_2 - 10 f_2_0 - 7.56120024277607 f_2_1 - 10 f_2_2
      - 10 f_3_0 - 10 f_3_1 - 7.14487267334532 f_3_2 - 10 f_4_0 + 10 f_4_1
      - 10 f_4_2 >= 96.1744683127631
 c13: delta - 10 f_0_0 + 10 f_0_1 - 10 f_0_2 + 10 f_1_0 - 10 f_1_1 - 10 f_1_2
      - 10 f_2_0 + 10 f_2_1 - 10 f_2_2 - 10 f_3_0 - 10 f_3_1 - 10 f_3_2
      - 10 f_4_0 + 9.99998034895935 f_4_1 - 10 f_4_2 >= 195.999852013975
 c14: delta - 10 f_0_0 + 10 f_0_1 - 10 f_0_2 - 10 f_1_0 - 10 f_1_1 - 10 f_1_2
      + 10 f_2_0 + 10 f_2_1 - 10 f_2_2 - 10 f_3_0 - 10 f_3_1
      - 9.99998798066468 f_3_2 - 10 f_4_0 + 10 f_4_1 - 10 f_4_2
      >= 191.999878119882
 c15: delta - 10 f_0_0 + 10 f_0_1 - 10 f_0_2 - 10 f_1_0 - 10 f_1_1 - 10 f_1_2
      + 6.59714771927605 f_2_0 - 10 f_2_1 - 10 f_2_2 - 10 f_3_0
      + 8.61217528026691 f_3_1 + 10 f_3_2 - 10 f_4_0 + 6.95276794274767 f_4_1
      - 10 f_4_2 >= 82.5318017874991
 c16: delta - 10 f_0_0 + 10 f_0_1 - 10 f_0_2 - 10 f_1_0 - 10 f_1_1 - 10 f_1_2
      - 10 f_2_0 - 7.56120024277607 f_2_1 - 10 f_2_2 - 10 f_3_0 - 10 f_3_1
      + 10 f_3_2 - 10 f_4_0 + 10 f_4_1 + 10 f_4_2 >= 99.6034428985278
 c17: delta - 10 f_0_0 + 10 f_0_1 - 10 f_0_2 - 10 f_1_0 - 10 f_1_1 - 10 f_1_2
      - 10 f_2_0 - 7.56120024277607 f_2_1 - 10 f_2_2 - 10 f_3_0 - 10 f_3_1
      - 7.14487267334532 f_3_2 - 10 f_4_0 + 10 f_4_1 - 10 f_4_2
      >= 96.1744683127631
 c18: delta - 10 f_0_0 + 10 f_0_1 - 10 f_0_2 + 10 f_1_0
      - 0.375305323068247 f_1_1 - 10 f_1_2 - 1.95560716336034 f_2_0 - 10 f_2_1
      - 10 f_2_2 - 10 f_3_0 - 10 f_3_1 - 6.74837047406076 f_3_2 - 10 f_4_0
      + 10 f_4_1 - 10 f_4_2 >= 86.8667796641532
 c19: delta - 10 f_0_0 + 10 f_0_1 - 10 f_0_2 - 7.67643383634308 f_1_0
      - 10 f_1_1 - 10 f_1_2 + 10 f_2_0 - 10 f_2_1 - 10 f_2_2
      - 3.16687771818881 f_3_0 - 10 f_3_1 - 6.74837047406076 f_3_2 - 10 f_4_0
      + 10 f_4_1 - 10 f_4_2 >= 83.3314928442047
 c20: delta - 10 f_0_0 + 10 f_0_1 - 10 f_0_2 - 7.67643383634308 f_1_0
      - 10 f_1_1 - 10 f_1_2 - 10 f_2_0 - 10 f_2_1 - 10 f_2_2 - 10 f_3_0
      - 10 f_3_1 - 6.74837047406076 f_3_2 - 10 f_4_0 + 10 f_4_1 - 10 f_4_2
      >= 83.3314928442047
 c21: delta - 10 f_0_0 - 10 f_0_1 + 10 f_0_2 - 10 f_1_0 + 10 f_1_1 - 10 f_1_2
      + 10 f_2_0 - 10 f_2_1 + 9.99999150838563 f_2_2 + 10 f_3_0 + 10 f_3_1
      - 10 f_3_2 + 10 f_4_0 + 9.99999090740269 f_4_1 - 10 f_4_2
      >= 199.999884731944
 c22: delta - 10 f_0_0 - 10 f_0_1 - 0.185462712080152 f_0_2 - 10 f_1_0
      + 10 f_1_1 - 10 f_1_2 + 10 f_2_0 - 10 f_2_1 - 10 f_2_2 - 10 f_3_0
      + 10 f_3_1 + 10 f_3_2 + 10 f_4_0 - 10 f_4_1 + 7.84940599605906 f_4_2
      >= 183.786305709507
 c23: delta - 10 f_0_0 - 10 f_0_1 + 10 f_0_2 - 10 f_1_0 + 10 f_1_1 - 10 f_1_2
      + 10 f_2_0 - 10 f_2_1 - 10 f_2_2 - 10 f_3_0 + 10 f_3_1 + 10 f_3_2
      + 10 f_4_0 - 10 f_4_1 + 10 f_4_2 >= 199.999884731944
 c24: delta + 9.9999978339488 f_0_0 - 10 f_0_1 + 10 f_0_2 + 10 f_1_0 - 10 f_1_1
      + 10 f_1_2 - 10 f_2_0 - 10 f_2_1 + 10 f_2_2 + 10 f_3_0 - 10 f_3_1
      + 9.99999508027321 f_3_2 - 10 f_4_0 + 10 f_4_1 + 10 f_4_2
      >= 199.999949323888
 c25: delta + 10 f_0_0 - 10 f_0_1 + 10 f_0_2 - 10 f_1_0
      - 0.889851362607743 f_1_1 - 10 f_1_2 - 10 f_2_0 - 10 f_2_1 + 10 f_2_2
      + 10 f_3_0 - 10 f_3_1 - 10 f_3_2 - 10 f_4_0 + 10 f_4_1 - 10 f_4_2
      >= 194.559020682316
 c26: delta + 10 f_0_0 - 10 f_0_1 + 10 f_0_2 - 10 f_1_0 - 10 f_1_1 - 10 f_1_2
      - 10 f_2_0 - 10 f_2_1 + 10 f_2_2 + 10 f_3_0 - 10 f_3_1 - 10 f_3_2
      - 10 f_4_0 + 10 f_4_1 + 10 f_4_2 >= 194.559020682316
 c27: delta + 10 f_0_0 - 10 f_0_1 + 10 f_0_2 - 10 f_1_0 - 10 f_1_1 - 10 f_1_2
      - 10 f_2_0 - 10 f_2_1 + 10 f_2_2 + 10 f_3_0 - 10 f_3_1 - 10 f_3_2
      - 10 f_4_0 + 10 f_4_1 - 10 f_4_2 >= 194.559020682316
 c28: delta + 9.99999783394881 f_0_0 - 10 f_0_1 + 10 f_0_2 + 10 f_1_0
      - 10 f_1_1 - 10 f_1_2 - 10 f_2_0 - 10 f_2_1 + 10 f_2_2 + 10 f_3_0
      - 10 f_3_1 - 10 f_3_2 - 10 f_4_0 + 10 f_4_1 - 10 f_4_2
      >= 199.999949323888
 c29: delta + 10 f_0_0 - 10 f_0_1 - 10 f_0_2 - 10 f_1_0 - 10 f_1_1 + 10 f_1_2
      - 10 f_2_0 + 10 f_2_1 + 10 f_2_2 + 10 f_3_0 - 10 f_3_1
      + 9.99999380560595 f_3_2 - 10 f_4_0 - 10 f_4_1 + 10 f_4_2
      >= 199.999949249342
 c30: delta + 10 f_0_0 - 10 f_0_1 - 10 f_0_2 - 10 f_1_0 - 10 f_1_1 + 10 f_1_2
      + 10 f_2_0 - 10 f_2_1 + 10 f_2_2 + 10 f_3_0 - 10 f_3_1 - 10 f_3_2
      - 10 f_4_0 - 10 f_4_1 - 9.99998868959193 f_4_2 >= 195.999951451819
 c31: delta + 10 f_0_0 - 10 f_0_1 - 10 f_0_2 - 10 f_1_0 - 10 f_1_1 + 10 f_1_2
      - 10 f_2_0 - 10 f_2_1 + 10 f_2_2 + 10 f_3_0 - 10 f_3_1 - 10 f_3_2
      - 10 f_4_0 - 10 f_4_1 - 9.99998868959193 f_4_2 >= 195.999951451819
 c32: delta - 10 f_0_0 - 10 f_0_1 + 10 f_0_2 - 10 f_1_0 + 10 f_1_1 - 10 f_1_2
      - 10 f_2_0 - 10 f_2_1 - 2.61588189963439 f_2_2 - 10 f_3_0 - 10 f_3_1
      + 10 f_3_2 + 10 f_4_0 + 10 f_4_1 - 10 f_4_2 >= 194.745366655093
 c33: delta - 10 f_0_0 - 10 f_0_1 + 10 f_0_2 - 10 f_1_0
      - 8.49000440735637 f_1_1 - 10 f_1_2 + 10 f_2_0 - 10 f_2_1
      - 2.61588189963436 f_2_2 - 10 f_3_0 - 10 f_3_1 + 10 f_3_2 - 10 f_4_0
      + 10 f_4_1 - 10 f_4_2 >= 187.953725873096
 c34: delta - 10 f_0_0 - 10 f_0_1 + 10 f_0_2 - 10 f_1_0
      - 8.49000440735637 f_1_1 - 10 f_1_2 - 10 f_2_0 - 10 f_2_1
      - 2.61588189963436 f_2_2 - 10 f_3_0 - 10 f_3_1 - 10 f_3_2 - 10 f_4_0
      + 10 f_4_1 - 10 f_4_2 >= 183.953725813491
 c35: delta - 10 f_0_0 - 10 f_0_1 + 10 f_0_2 - 10 f_1_0
      - 8.49000440735637 f_1_1 - 10 f_1_2 - 10 f_2_0 - 10 f_2_1
      - 2.61588189963436 f_2_2 - 10 f_3_0 - 10 f_3_1 + 10 f_3_2 - 10 f_4_0
      + 10 f_4_1 - 10 f_4_2 >= 187.953725873096
 c36: delta - 10 f_0_0 - 10 f_0_1 - 0.755806305780368 f_0_2 + 10 f_1_0
      - 10 f_1_1 + 10 f_1_2 + 10 f_2_0 + 10 f_2_1 - 10 f_2_2 - 10 f_3_0
      + 10 f_3_1 - 10 f_3_2 + 10 f_4_0 - 10 f_4_1 + 10 f_4_2
      >= 195.086460549705
 c37: delta - 10 f_0_0 - 10 f_0_1 - 0.755806305780368 f_0_2 + 10 f_1_0
      - 10 f_1_1 + 10 f_1_2 + 10 f_2_0 - 10 f_2_1 - 10 f_2_2 + 10 f_3_0
      + 10 f_3_1 - 10 f_3_2 + 10 f_4_0 - 10 f_4_1 + 10 f_4_2
      >= 195.086460549705
 c38: delta - 10 f_0_0 - 10 f_0_1 - 0.755806305780368 f_0_2 - 10 f_1_0
      - 10 f_1_1 + 10 f_1_2 + 10 f_2_0 - 10 f_2_1 - 10 f_2_2 + 10 f_3_0
      + 10 f_3_1 - 10 f_3_2 + 10 f_4_0 - 10 f_4_1 + 10 f_4_2
      >= 195.086460549705
 c39: delta - 10 f_0_0 - 10 f_0_1 + 10 f_0_2 + 10 f_1_0 - 10 f_1_1 - 10 f_1_2
      - 10 f_2_0 + 10 f_2_1 - 10 f_2_2 + 10 f_3_0 - 10 f_3_1 + 10 f_3_2
      + 9.99999225764362 f_4_0 - 10 f_4_1 + 10 f_4_2 >= 199.999906968778
 c40: delta - 10 f_0_0 - 10 f_0_1 + 10 f_0_2 - 10 f_1_0 - 10 f_1_1 - 10 f_1_2
      - 10 f_2_0 + 10 f_2_1 - 10 f_2_2 - 10 f_3_0 - 10 f_3_1 + 10 f_3_2
      - 10 f_4_0 - 10 f_4_1 + 10 f_4_2 >= 195.999906909173
 c41: delta - 10 f_0_0 + 10 f_0_1 - 10 f_0_2 + 10 f_1_0 - 10 f_1_1 - 10 f_1_2
      + 10 f_2_0 - 10 f_2_1 + 10 f_2_2 + 10 f_3_0 - 10 f_3_1 + 10 f_3_2
      - 10 f_4_0 - 10 f_4_1 - 9.99999145974041 f_4_2 >= 195.999894133962
 c42: delta - 10 f_0_0 + 10 f_0_1 - 10 f_0_2 + 10 f_1_0 - 10 f_1_1 - 10 f_1_2
      + 10 f_2_0 - 10 f_2_1 - 10 f_2_2 + 10 f_3_0 - 10 f_3_1 + 10 f_3_2
      - 10 f_4_0 - 10 f_4_1 - 9.99999145974044 f_4_2 >= 195.999894133961
 c43: delta - 10 f_0_0 + 10 f_0_1 - 10 f_0_2 + 10 f_1_0 - 10 f_1_1 - 10 f_1_2
      + 10 f_2_0 - 10 f_2_1 - 10 f_2_2 + 10 f_3_0 - 10 f_3_1 + 10 f_3_2
      - 10 f_4_0 - 10 f_4_1 + 10 f_4_2 >= 199.999892485514
 c44: delta + 10 f_0_0 - 10 f_0_1 - 10 f_0_2 + 10 f_1_0 - 10 f_1_1 - 10 f_1_2
      - 10 f_2_0 + 10 f_2_1 - 10 f_2_2 + 10 f_3_0 + 10 f_3_1 - 10 f_3_2
      + 10 f_4_0 - 10 f_4_1 - 10 f_4_2 >= 199.9999804787
 c45: delta - 10 f_0_0 + 10 f_0_1 - 10 f_0_2 - 10 f_1_0 + 10 f_1_1 - 10 f_1_2
      - 10 f_2_0 - 10 f_2_1 + 10 f_2_2 + 10 f_3_0 + 10 f_3_1 - 10 f_3_2
      + 10 f_4_0 - 10 f_4_1 + 10 f_4_2 >= 199.999874073678
 c46: delta - 10 f_0_0 + 10 f_0_1 - 10 f_0_2 - 10 f_1_0 + 10 f_1_1 - 10 f_1_2
      - 10 f_2_0 - 10 f_2_1 + 10 f_2_2 - 10 f_3_0 + 10 f_3_1 - 10 f_3_2
      - 10 f_4_0 - 10 f_4_1 - 3.53971948066624 f_4_2 >= 189.879662312906
 c47: delta - 10 f_0_0 + 10 f_0_1 - 10 f_0_2 - 10 f_1_0 - 10 f_1_1
      - 9.99999847684981 f_1_2 - 10 f_2_0 + 10 f_2_1 - 10 f_2_2 - 10 f_3_0
      - 10 f_3_1 - 9.99998569541236 f_3_2 + 10 f_4_0 - 10 f_4_1 - 10 f_4_2
      >= 191.999883094766
 c48: delta - 10 f_0_0 + 10 f_0_1 - 10 f_0_2 - 10 f_1_0
      + 7.41385066327746 f_1_1 - 9.39171708503125 f_1_2 - 10 f_2_0 + 10 f_2_1
      - 10 f_2_2 - 10 f_3_0 - 10 f_3_1 - 10 f_3_2 - 8.53751204398952 f_4_0
      - 10 f_4_1 - 10 f_4_2 >= 167.816276354055
 c49: delta - 10 f_0_0 + 10 f_0_1 - 10 f_0_2 - 10 f_1_0 - 10 f_1_1
      - 9.39171708503125 f_1_2 - 10 f_2_0 + 10 f_2_1 - 10 f_2_2 - 10 f_3_0
      + 2.23276035367994 f_3_1 - 10 f_3_2 - 8.53751204398952 f_4_0 - 10 f_4_1
      - 10 f_4_2 >= 167.816276354055
 c50: delta - 10 f_0_0 - 10 f_0_1 - 10 f_0_2 - 10 f_1_0 + 10 f_1_1 - 10 f_1_2
      + 10 f_2_0 - 10 f_2_1 - 10 f_2_2 - 10 f_3_0 + 10 f_3_1 - 10 f_3_2
      - 10 f_4_0 - 10 f_4_1 + 10 f_4_2 >= 195.999873639103
 c51: delta + 10 f_0_0 - 10 f_0_1 - 10 f_0_2 - 10 f_1_0 - 10 f_1_1 + 10 f_1_2
      + 10 f_2_0 - 10 f_2_1 - 10 f_2_2 - 10 f_3_0 + 10 f_3_1 + 10 f_3_2
      - 10 f_4_0 - 10 f_4_1 - 9.99999364397192 f_4_2 >= 195.999913009156
 c52: delta + 10 f_0_0 - 10 f_0_1 - 10 f_0_2 + 9.99999583742289 f_1_0
      - 10 f_1_1 + 10 f_1_2 + 10 f_2_0 - 10 f_2_1 - 10 f_2_2 - 10 f_3_0
      - 10 f_3_1 + 10 f_3_2 - 10 f_4_0 - 10 f_4_1 - 9.99999364397192 f_4_2
      >= 195.999913009156
 c53: delta + 10 f_0_0 - 10 f_0_1 - 10 f_0_2 + 10 f_1_0 - 10 f_1_1 - 10 f_1_2
      - 10 f_2_0 - 10 f_2_1 + 10 f_2_2 - 10 f_3_0 + 10 f_3_1 - 10 f_3_2
      - 10 f_4_0 - 10 f_4_1 - 3.53971501241841 f_4_2 >= 193.512439403179
 c54: delta + 10 f_0_0 - 10 f_0_1 - 10 f_0_2 + 10 f_1_0 - 10 f_1_1 - 10 f_1_2
      - 10 f_2_0 - 10 f_2_1 + 10 f_2_2 - 10 f_3_0 + 2.43762458993413 f_3_1
      - 10 f_3_2 - 10 f_4_0 - 10 f_4_1 + 0.388288932157849 f_4_2
      >= 191.999964298629
 c55: delta + 10 f_0_0 - 10 f_0_1 - 10 f_0_2 + 10 f_1_0 - 10 f_1_1 - 10 f_1_2
      - 10 f_2_0 + 10 f_2_1 - 10 f_2_2 - 10 f_3_0 - 10 f_3_1 + 10 f_3_2
      - 10 f_4_0 - 10 f_4_1 + 10 f_4_2 >= 199.999966377559
 c56: delta + 10 f_0_0 - 10 f_0_1 - 10 f_0_2 - 10 f_1_0 - 10 f_1_1 + 10 f_1_2
      - 10 f_2_0 - 10 f_2_1 + 10 f_2_2 - 10 f_3_0 - 10 f_3_1 + 10 f_3_2
      - 10 f_4_0 - 10 f_4_1 - 10 f_4_2 >= 195.999952690698
End
